(declare-const |main____CPAchecker_TMP_3':226:255:269:287:307| Int)
(declare-const main____CPAchecker_TMP_3 Int)
(declare-const |main____CPAchecker_TMP_1':153:167:172:271:291| Int)
(declare-const havoc Int)
(declare-const |havoc:9:61:176:289| Int)
(declare-const |__VERIFIER_assert__cond___9':224:247:261:279:299| Int)
(declare-const __VERIFIER_assert__cond___11 Int)
(declare-const |__VERIFIER_assert__cond___13':229:252:266:284:304| Int)
(declare-const |main__cp':152:170:175:274:294| Int)
(declare-const |havoc:21:63:259:277:297| Int)
(declare-const |havoc:26:64:212:288:308| Int)
(declare-const __VERIFIER_assert__cond___15 Int)
(declare-const __VERIFIER_assert__cond___16 Int)
(declare-const __VERIFIER_assert__cond___12 Int)
(declare-const main____CPAchecker_TMP_1 Int)
(declare-const |havoc:1| Int)
(declare-const |main__c':223:250:264:282:302| Int)
(declare-const |havoc:12:62:258:276:296| Int)
(declare-const |__VERIFIER_assert__cond___16':155:168:173:272:292| Int)
(declare-const |__VERIFIER_assert__cond___12':228:253:267:285:305| Int)
(declare-const __VERIFIER_assert__cond___13 Int)
(declare-const |havoc:2| Int)
(declare-const |main__cp':152:248:262:280:300| Int)
(declare-const |__VERIFIER_assert__cond___14':230:251:265:283:303| Int)
(declare-const |K:245:246:260:278:298| Int)
(declare-const __VERIFIER_assert__cond___10 Int)
(declare-const |__VERIFIER_assert__cond___10':225:249:263:281:301| Int)
(declare-const |K:165:166:171:270:290| Int)
(declare-const |phi_main____CPAchecker_TMP_1:256:257:275:295| Int)
(declare-const __VERIFIER_assert__cond___9 Int)
(declare-const __VERIFIER_assert__cond___14 Int)
(declare-const |__VERIFIER_assert__cond___15':154:169:174:273:293| Int)
(declare-const |__VERIFIER_assert__cond___11':227:254:268:286:306| Int)
(assert (and (<= (+ havoc -1000000) 0) (<= (+ (- havoc) -1000000) 0)
               (<= (+ |havoc:1| -1000000) 0)
               (<= (+ (- |havoc:1|) -1000000) 0)
               (<= (+ |havoc:2| -1000000) 0)
               (<= (+ (- |havoc:2|) -1000000) 0) (< (- havoc) 0)
               (< (- |havoc:1|) 0) (<= (- |havoc:2|) 0) (not (= |havoc:2| 0))
               (<= (+ |havoc:2| (- havoc) 1) 0)
               (not (= (ite (< (+ |havoc:2| (- havoc) -1) 0) 1 0) 0))
               (not (= (ite (<= (+ (- |havoc:2|) 1) 0) 1 0) 0))
               (not (= |havoc:9:61:176:289| 0))
               (not (= (ite (< (+ |havoc:2| (- havoc)) 0) 1 0) 0))
               (not (= (ite (<= (- |havoc:2|) 0) 1 0) 0))
               (or (not (and (<= (- |K:165:166:171:270:290|) 0)
                               (<= |K:165:166:171:270:290| 0)))
                     (= (+ (- main____CPAchecker_TMP_1)
                             |main____CPAchecker_TMP_1':153:167:172:271:291|) 0))
               (or (not (<= (+ (- |K:165:166:171:270:290|) 1) 0))
                     (= |main____CPAchecker_TMP_1':153:167:172:271:291| 0))
               (or (not (and (<= (- |K:165:166:171:270:290|) 0)
                               (<= |K:165:166:171:270:290| 0)))
                     (= (+ (- __VERIFIER_assert__cond___16)
                             |__VERIFIER_assert__cond___16':155:168:173:272:292|) 0))
               (or (not (<= (+ (- |K:165:166:171:270:290|) 1) 0))
                     (= (+ |__VERIFIER_assert__cond___16':155:168:173:272:292|
                             -1) 0))
               (or (not (and (<= (- |K:165:166:171:270:290|) 0)
                               (<= |K:165:166:171:270:290| 0)))
                     (= (+ (- __VERIFIER_assert__cond___15)
                             |__VERIFIER_assert__cond___15':154:169:174:273:293|) 0))
               (or (not (<= (+ (- |K:165:166:171:270:290|) 1) 0))
                     (= (+ |__VERIFIER_assert__cond___15':154:169:174:273:293|
                             -1) 0))
               (or (not (<= (- |K:165:166:171:270:290|) 0))
                     (= (+ |main__cp':152:170:175:274:294|
                             (- |K:165:166:171:270:290|) (- |havoc:2|)) 0))
               (or (and (= |K:165:166:171:270:290| 0)
                          (= (+ __VERIFIER_assert__cond___16
                                  (- |__VERIFIER_assert__cond___16':155:168:173:272:292|)) 0)
                          (= (+ __VERIFIER_assert__cond___15
                                  (- |__VERIFIER_assert__cond___15':154:169:174:273:293|)) 0)
                          (= (+ main____CPAchecker_TMP_1
                                  (- |main____CPAchecker_TMP_1':153:167:172:271:291|)) 0)
                          (= (+ (- |main__cp':152:170:175:274:294|) |havoc:2|) 0))
                     (and (<= (+ (- |K:165:166:171:270:290|) 1) 0)
                            (<= (+ |havoc:2| (- havoc) 2) 0)
                            (<= (+ (- |havoc:2|) 1) 0)
                            (= (+ |__VERIFIER_assert__cond___16':155:168:173:272:292|
                                    -1) 0)
                            (= (+ |__VERIFIER_assert__cond___15':154:169:174:273:293|
                                    -1) 0)
                            (= |main____CPAchecker_TMP_1':153:167:172:271:291| 0)
                            (<= (+ |main__cp':152:170:175:274:294| (- 
                                     havoc) 1) 0)
                            (<= (+ (- |main__cp':152:170:175:274:294|) 2) 0)))
               (<= (- |K:165:166:171:270:290|) 0) (< (- havoc) 0)
               (< (- |main__cp':152:170:175:274:294|) 0)
               (or (and (<= (+ (- |main__cp':152:170:175:274:294|) havoc -1) 0)
                          (<= (+ |main__cp':152:170:175:274:294| (- havoc) 1) 0)
                          (= (+ (- |phi_main____CPAchecker_TMP_1:256:257:275:295|)
                                  |main____CPAchecker_TMP_1':153:167:172:271:291|) 0))
                     (and (or (< (+ |main__cp':152:170:175:274:294| (- 
                                      havoc) 1) 0)
                                (< (+ (- |main__cp':152:170:175:274:294|)
                                        havoc -1) 0))
                            (not (= |havoc:12:62:258:276:296| 0))
                            (= (+ |havoc:12:62:258:276:296|
                                    (- |phi_main____CPAchecker_TMP_1:256:257:275:295|)) 0)))
               (not (= (ite (< (+ |main__cp':152:170:175:274:294| (- havoc)) 0)
                            1 0) 0))
               (not (= (ite (<= (- |main__cp':152:170:175:274:294|) 0) 1 0) 0))
               (not (= (+ |main__cp':152:170:175:274:294| (- havoc) 1) 0))
               (not (= (ite (< (+ |main__cp':152:170:175:274:294| (- havoc) 1) 0)
                            1 0) 0))
               (not (= (ite (<= (+ (- |main__cp':152:170:175:274:294|) -1) 0)
                            1 0) 0))
               (not (= (+ |main__cp':152:170:175:274:294| (- havoc) 2) 0))
               (not (= |havoc:21:63:259:277:297| 0))
               (not (= (ite (< (+ |main__cp':152:170:175:274:294| (- havoc) 1) 0)
                            1 0) 0))
               (not (= (ite (<= (+ (- |main__cp':152:170:175:274:294|) -1) 0)
                            1 0) 0))
               (or (not (and (<= (- |K:245:246:260:278:298|) 0)
                               (<= |K:245:246:260:278:298| 0)))
                     (= (+ (- __VERIFIER_assert__cond___9)
                             |__VERIFIER_assert__cond___9':224:247:261:279:299|) 0))
               (or (not (<= (+ (- |K:245:246:260:278:298|) 1) 0))
                     (= (+ |__VERIFIER_assert__cond___9':224:247:261:279:299|
                             -1) 0))
               (or (not (<= (- |K:245:246:260:278:298|) 0))
                     (= (+ |main__cp':152:248:262:280:300|
                             (- |K:245:246:260:278:298|)
                             (- |main__cp':152:170:175:274:294|) -1) 0))
               (or (not (and (<= (- |K:245:246:260:278:298|) 0)
                               (<= |K:245:246:260:278:298| 0)))
                     (= (+ (- __VERIFIER_assert__cond___10)
                             |__VERIFIER_assert__cond___10':225:249:263:281:301|) 0))
               (or (not (<= (+ (- |K:245:246:260:278:298|) 1) 0))
                     (= (+ |__VERIFIER_assert__cond___10':225:249:263:281:301|
                             -1) 0))
               (or (not (<= (- |K:245:246:260:278:298|) 0))
                     (<= (+ |main__c':223:250:264:282:302|
                              (- |K:245:246:260:278:298|)) 0))
               (or (not (<= (- |K:245:246:260:278:298|) 0))
                     (<= (- |main__c':223:250:264:282:302|) 0))
               (or (and (= |K:245:246:260:278:298| 0)
                          (= (+ (- |__VERIFIER_assert__cond___14':230:251:265:283:303|)
                                  __VERIFIER_assert__cond___14) 0)
                          (= (+ (- |__VERIFIER_assert__cond___13':229:252:266:284:304|)
                                  __VERIFIER_assert__cond___13) 0)
                          (= (+ (- |__VERIFIER_assert__cond___12':228:253:267:285:305|)
                                  __VERIFIER_assert__cond___12) 0)
                          (= (+ (- |__VERIFIER_assert__cond___11':227:254:268:286:306|)
                                  __VERIFIER_assert__cond___11) 0)
                          (= (+ (- |main____CPAchecker_TMP_3':226:255:269:287:307|)
                                  main____CPAchecker_TMP_3) 0)
                          (= (+ __VERIFIER_assert__cond___10
                                  (- |__VERIFIER_assert__cond___10':225:249:263:281:301|)) 0)
                          (= (+ __VERIFIER_assert__cond___9
                                  (- |__VERIFIER_assert__cond___9':224:247:261:279:299|)) 0)
                          (= (- |main__c':223:250:264:282:302|) 0)
                          (= (+ (- |main__cp':152:248:262:280:300|)
                                  |main__cp':152:170:175:274:294| 1) 0))
                     (and (<= (+ (- |K:245:246:260:278:298|) 1) 0)
                            (<= (+ |main__cp':152:170:175:274:294| (- 
                                     havoc) 3) 0) (<= (+ (- |havoc:1|) 2) 0)
                            (<= (- |main__cp':152:170:175:274:294|) 0)
                            (= (+ |__VERIFIER_assert__cond___10':225:249:263:281:301|
                                    -1) 0)
                            (= (+ |__VERIFIER_assert__cond___9':224:247:261:279:299|
                                    -1) 0)
                            (<= (+ |main__cp':152:248:262:280:300| (- 
                                     havoc) 1) 0)
                            (<= (+ |main__c':223:250:264:282:302|
                                     (- |havoc:1|) 1) 0)
                            (<= (+ (- |havoc:1|) 2) 0)
                            (<= (- |main__c':223:250:264:282:302|) 0)
                            (<= (+ (- |main__cp':152:248:262:280:300|) 2) 0)))
               (<= (- |K:245:246:260:278:298|) 0) (< (- |havoc:1|) 0)
               (<= (- |main__c':223:250:264:282:302|) 0) (< (- havoc) 0)
               (< (- |main__cp':152:248:262:280:300|) 0)
               (or (< (+ |main__cp':152:248:262:280:300| (- havoc) 1) 0)
                     (< (+ (- |main__cp':152:248:262:280:300|) havoc -1) 0))
               (< (+ |main__c':223:250:264:282:302| (- |havoc:1|) 1) 0)
               (not (= (ite (< (+ |main__cp':152:248:262:280:300| (- havoc)) 0)
                            1 0) 0))
               (not (= (ite (<= (- |main__cp':152:248:262:280:300|) 0) 1 0) 0))
               (not (= |havoc:26:64:212:288:308| 0))
               (not (= (ite (< (+ |main__c':223:250:264:282:302|
                                    (- |havoc:1|) 1) 0)
                            1 0) 0))
               (not (= (ite (<= (+ (- |main__c':223:250:264:282:302|) -1) 0)
                            1 0) 0))
               (not (= (ite (< (+ |main__cp':152:248:262:280:300| (- havoc)) 0)
                            1 0) 0))
               (= (ite (<= (- |main__cp':152:248:262:280:300|) 0) 1 0) 0)))
(check-sat)
